c This is glucose 2.0 --  based on MiniSAT (Many thanks to MiniSAT team)
c WARNING: for repeatability, setting FPU to use double precision
c ============================[ Problem Statistics ]=============================
c |                                                                             |
c |  Number of variables:            13                                         |
c |  Number of clauses:               1                                         |
c |  Parse time:                   0.00 s                                       |
c |                                                                             |
c ============================[ Search Statistics ]==============================
c | Conflicts |          ORIGINAL         |          LEARNT          | Progress |
c |           |    Vars  Clauses Literals |    Limit  Clauses Lit/Cl |          |
c ===============================================================================
c |         0 |      12        1        2 |        0        0   -nan |  8.333 % |
c ===============================================================================
c restarts              : 1
c nb ReduceDB           : 0
c nb removed Clauses    : 0
c nb learnts DL2        : 0
c nb learnts size 2     : 0
c nb learnts size 1     : 0
c conflicts             : 0              (-nan /sec)
c decisions             : 13             (0.00 % random) (inf /sec)
c propagations          : 13             (inf /sec)
c conflict literals     : 0              (-nan % deleted)
c nb reduced Clauses    : 0
c CPU time              : 0 s

s SATISFIABLE
v -1 -2 -3 -4 -5 -6 -7 -8 -9 -10 -11 -12 13 0
